
        $ From http://www.csplib.org/Problems/prob009/data/helmut.pdf
        $ Problem number 158
        $ Sequence length : 25
        language ESSENCE' 1.0
        letting sizemaster be 531
        letting sizes be sequence(6,9,10,17,19,24,29,31,39,40,67,68,71,84,101,102,105,118,151,153,159,165,171,195,207)
        